% Auto-generated by scripts/generate_dzn.py
% problem_type   = regex
% instance       = regex_83
% source_json    = instances_json/2_high_blowup/regex_83.json
% blowup         = 33.285714285714285
% representation = NFA

mode = 1;

var_count = 20;
Q = 14;
S = 2;
q0 = 1;
F = {14};
d_dfa = array2d(1..14, 1..2, [
  0, 0,
  0, 0,
  0, 0,
  0, 0,
  0, 0,
  0, 0,
  0, 0,
  0, 0,
  0, 0,
  0, 0,
  0, 0,
  0, 0,
  0, 0,
  0, 0
]);
d_nfa = array2d(1..14, 1..2, [
  {1}, {1, 2},
  {3}, {},
  {}, {4},
  {5}, {5},
  {6}, {6},
  {7}, {7},
  {8}, {8},
  {9}, {9},
  {10}, {10},
  {11}, {11},
  {12}, {12},
  {13}, {13},
  {14}, {14},
  {}, {}
]);
